N = 9;
H = 6;
T = 2;

avail = array3d(1..N, 1..H, 1..T, [7, 8, 8, 8, 2, 8, 5, 7, 4, 5, 3, 7, 6, 1, 10, 4, 10, 10, 5, 6, 1, 0, 10, 0, 8, 8, 0, 8, 10, 3, 8, 0, 1, 0, 0, 6, 2, 9, 4, 5, 6, 5, 4, 5, 0, 5, 5, 8, 0, 4, 10, 4, 3, 6, 6, 1, 2, 5, 10, 2, 3, 2, 7, 4, 0, 8, 9, 0, 8, 3, 10, 9, 7, 5, 1, 1, 8, 3, 3, 8, 3, 6, 2, 6, 7, 0, 8, 1, 10, 7, 2, 4, 6, 8, 8, 4, 5, 1, 9, 1, 10, 8, 4, 7, 4, 6, 7, 4]);

r = array2d(1..H, 1..T, [3, 4, 1, 2, 3, 1, 3, 3, 3, 3, 2, 2]);
